(declare-const a Real)
(declare-const b Real)
(declare-const c Real)
(assert (= (* a b c) 1))
(assert (> a 0))
(assert (> b 0))
(assert (> c 0))
(assert (not (<= (+ (* -33369216 (pow a 4)) (* 832464 (pow (+ a b) 4)) (* -170650752 (pow a (/ 442368 444403)) (pow b (/ 1335244 444403))) (* 43003392 b (pow a 3)) (* 147697152 a (pow b 3))) 0)))
(check-sat)
(get-model)
(exit)